p edge 2705 2650
e 1 2
e 1 3
e 1 4
e 1 5
e 1 6
e 1 7
e 1 8
e 1 9
e 1 10
e 1 11
e 1 12
e 1 13
e 1 14
e 1 15
e 1 16
e 1 17
e 1 18
e 1 19
e 1 20
e 1 21
e 1 22
e 1 23
e 1 24
e 1 25
e 1 26
e 1 27
e 1 28
e 1 29
e 1 30
e 1 31
e 1 32
e 1 33
e 1 34
e 1 35
e 1 36
e 1 37
e 1 38
e 1 39
e 1 40
e 1 41
e 1 42
e 1 43
e 1 44
e 1 45
e 1 46
e 1 47
e 1 48
e 1 49
e 1 50
e 1 51
e 1 52
e 1 53
e 1 54
e 1 55
e 1 56
e 1 57
e 58 59
e 58 60
e 58 61
e 58 62
e 58 63
e 58 64
e 58 65
e 58 66
e 58 67
e 58 68
e 58 69
e 58 70
e 58 71
e 58 72
e 58 73
e 58 74
e 58 75
e 58 76
e 58 77
e 58 78
e 58 79
e 58 80
e 58 81
e 58 82
e 58 83
e 58 84
e 58 85
e 58 86
e 58 87
e 58 88
e 58 89
e 58 90
e 58 91
e 58 92
e 58 93
e 58 94
e 58 95
e 58 96
e 58 97
e 58 98
e 58 99
e 58 100
e 58 101
e 58 102
e 58 103
e 58 104
e 58 105
e 58 106
e 58 107
e 58 108
e 58 109
e 58 110
e 58 111
e 58 112
e 58 113
e 58 114
e 58 115
e 58 116
e 58 117
e 58 118
e 58 119
e 58 120
e 58 121
e 58 122
e 58 123
e 58 124
e 58 125
e 58 126
e 58 127
e 58 128
e 58 129
e 58 130
e 58 131
e 58 132
e 133 134
e 133 135
e 133 136
e 133 137
e 133 138
e 133 139
e 133 140
e 133 141
e 133 142
e 133 143
e 133 144
e 133 145
e 133 146
e 133 147
e 133 148
e 133 149
e 133 150
e 133 151
e 133 152
e 133 153
e 133 154
e 133 155
e 133 156
e 133 157
e 133 158
e 133 159
e 133 160
e 133 161
e 133 162
e 133 163
e 133 164
e 165 166
e 165 167
e 165 168
e 165 169
e 165 170
e 165 171
e 165 172
e 165 173
e 165 174
e 165 175
e 165 176
e 165 177
e 165 178
e 165 179
e 165 180
e 165 181
e 165 182
e 165 183
e 165 184
e 165 185
e 165 186
e 165 187
e 165 188
e 165 189
e 165 190
e 165 191
e 165 192
e 165 193
e 165 194
e 165 195
e 165 196
e 165 197
e 165 198
e 165 199
e 165 200
e 165 201
e 165 202
e 165 203
e 165 204
e 165 205
e 165 206
e 165 207
e 165 208
e 165 209
e 165 210
e 165 211
e 165 212
e 165 213
e 165 214
e 165 215
e 165 216
e 165 217
e 165 218
e 165 219
e 165 220
e 165 221
e 165 222
e 165 223
e 165 224
e 165 225
e 165 226
e 165 227
e 165 228
e 165 229
e 165 230
e 165 231
e 165 232
e 165 233
e 234 235
e 234 236
e 234 237
e 234 238
e 234 239
e 234 240
e 234 241
e 234 242
e 234 243
e 234 244
e 234 245
e 246 247
e 246 248
e 246 249
e 246 250
e 246 251
e 246 252
e 246 253
e 246 254
e 246 255
e 246 256
e 257 258
e 257 259
e 257 260
e 257 261
e 257 262
e 257 263
e 257 264
e 257 265
e 257 266
e 257 267
e 257 268
e 257 269
e 257 270
e 257 271
e 257 272
e 257 273
e 257 274
e 257 275
e 257 276
e 257 277
e 257 278
e 257 279
e 257 280
e 257 281
e 257 282
e 257 283
e 257 284
e 257 285
e 257 286
e 257 287
e 257 288
e 257 289
e 257 290
e 257 291
e 257 292
e 257 293
e 257 294
e 257 295
e 257 296
e 257 297
e 257 298
e 257 299
e 257 300
e 257 301
e 257 302
e 257 303
e 257 304
e 257 305
e 257 306
e 257 307
e 257 308
e 257 309
e 257 310
e 257 311
e 257 312
e 257 313
e 257 314
e 257 315
e 257 316
e 257 317
e 257 318
e 257 319
e 257 320
e 257 321
e 257 322
e 257 323
e 257 324
e 257 325
e 257 326
e 257 327
e 257 328
e 329 330
e 329 331
e 329 332
e 329 333
e 329 334
e 329 335
e 329 336
e 329 337
e 329 338
e 329 339
e 329 340
e 329 341
e 329 342
e 329 343
e 329 344
e 329 345
e 329 346
e 329 347
e 329 348
e 329 349
e 329 350
e 329 351
e 329 352
e 329 353
e 329 354
e 329 355
e 329 356
e 329 357
e 329 358
e 329 359
e 329 360
e 329 361
e 329 362
e 329 363
e 329 364
e 329 365
e 329 366
e 329 367
e 329 368
e 329 369
e 329 370
e 329 371
e 329 372
e 329 373
e 329 374
e 329 375
e 329 376
e 329 377
e 329 378
e 329 379
e 329 380
e 329 381
e 329 382
e 329 383
e 329 384
e 329 385
e 329 386
e 329 387
e 329 388
e 329 389
e 329 390
e 329 391
e 329 392
e 329 393
e 329 394
e 329 395
e 329 396
e 329 397
e 329 398
e 329 399
e 329 400
e 329 401
e 329 402
e 329 403
e 329 404
e 329 405
e 329 406
e 329 407
e 408 409
e 408 410
e 408 411
e 408 412
e 408 413
e 408 414
e 408 415
e 408 416
e 408 417
e 408 418
e 408 419
e 408 420
e 408 421
e 408 422
e 408 423
e 408 424
e 408 425
e 408 426
e 408 427
e 408 428
e 408 429
e 408 430
e 408 431
e 408 432
e 408 433
e 408 434
e 408 435
e 408 436
e 408 437
e 408 438
e 408 439
e 408 440
e 408 441
e 408 442
e 408 443
e 408 444
e 408 445
e 408 446
e 408 447
e 408 448
e 408 449
e 408 450
e 408 451
e 408 452
e 408 453
e 408 454
e 408 455
e 408 456
e 408 457
e 408 458
e 408 459
e 408 460
e 408 461
e 408 462
e 408 463
e 408 464
e 408 465
e 408 466
e 408 467
e 408 468
e 408 469
e 408 470
e 408 471
e 472 473
e 472 474
e 472 475
e 472 476
e 472 477
e 472 478
e 472 479
e 472 480
e 472 481
e 472 482
e 472 483
e 472 484
e 472 485
e 472 486
e 472 487
e 472 488
e 472 489
e 472 490
e 472 491
e 472 492
e 472 493
e 472 494
e 472 495
e 472 496
e 472 497
e 472 498
e 472 499
e 472 500
e 472 501
e 472 502
e 472 503
e 472 504
e 472 505
e 472 506
e 472 507
e 472 508
e 472 509
e 472 510
e 472 511
e 472 512
e 472 513
e 472 514
e 472 515
e 472 516
e 472 517
e 472 518
e 472 519
e 472 520
e 472 521
e 472 522
e 472 523
e 472 524
e 472 525
e 472 526
e 472 527
e 472 528
e 472 529
e 472 530
e 472 531
e 472 532
e 472 533
e 472 534
e 472 535
e 472 536
e 472 537
e 472 538
e 472 539
e 472 540
e 472 541
e 472 542
e 472 543
e 472 544
e 472 545
e 472 546
e 472 547
e 472 548
e 472 549
e 472 550
e 472 551
e 552 553
e 552 554
e 552 555
e 552 556
e 552 557
e 552 558
e 552 559
e 552 560
e 552 561
e 552 562
e 552 563
e 552 564
e 552 565
e 552 566
e 552 567
e 552 568
e 552 569
e 552 570
e 552 571
e 552 572
e 552 573
e 552 574
e 552 575
e 552 576
e 552 577
e 552 578
e 552 579
e 552 580
e 552 581
e 552 582
e 552 583
e 552 584
e 552 585
e 552 586
e 552 587
e 552 588
e 552 589
e 552 590
e 552 591
e 552 592
e 552 593
e 552 594
e 552 595
e 552 596
e 552 597
e 552 598
e 552 599
e 552 600
e 552 601
e 602 603
e 602 604
e 602 605
e 602 606
e 602 607
e 602 608
e 602 609
e 602 610
e 602 611
e 602 612
e 602 613
e 602 614
e 602 615
e 602 616
e 602 617
e 602 618
e 602 619
e 602 620
e 602 621
e 602 622
e 602 623
e 602 624
e 602 625
e 602 626
e 602 627
e 602 628
e 602 629
e 602 630
e 602 631
e 602 632
e 602 633
e 602 634
e 602 635
e 602 636
e 602 637
e 602 638
e 602 639
e 602 640
e 602 641
e 602 642
e 602 643
e 602 644
e 602 645
e 602 646
e 602 647
e 602 648
e 602 649
e 602 650
e 602 651
e 602 652
e 602 653
e 602 654
e 602 655
e 602 656
e 657 658
e 657 659
e 657 660
e 657 661
e 657 662
e 657 663
e 657 664
e 657 665
e 657 666
e 657 667
e 657 668
e 657 669
e 657 670
e 657 671
e 657 672
e 657 673
e 657 674
e 657 675
e 657 676
e 657 677
e 657 678
e 657 679
e 657 680
e 657 681
e 657 682
e 657 683
e 657 684
e 657 685
e 657 686
e 657 687
e 657 688
e 657 689
e 657 690
e 657 691
e 657 692
e 657 693
e 657 694
e 657 695
e 657 696
e 657 697
e 657 698
e 699 700
e 699 701
e 699 702
e 699 703
e 699 704
e 699 705
e 699 706
e 699 707
e 699 708
e 699 709
e 699 710
e 699 711
e 699 712
e 699 713
e 699 714
e 699 715
e 699 716
e 699 717
e 699 718
e 699 719
e 699 720
e 699 721
e 699 722
e 699 723
e 699 724
e 699 725
e 699 726
e 699 727
e 699 728
e 699 729
e 699 730
e 699 731
e 699 732
e 699 733
e 699 734
e 699 735
e 699 736
e 699 737
e 699 738
e 699 739
e 699 740
e 699 741
e 699 742
e 699 743
e 699 744
e 699 745
e 699 746
e 699 747
e 699 748
e 699 749
e 699 750
e 699 751
e 752 753
e 752 754
e 752 755
e 752 756
e 752 757
e 752 758
e 752 759
e 752 760
e 752 761
e 752 762
e 752 763
e 752 764
e 752 765
e 752 766
e 752 767
e 752 768
e 752 769
e 752 770
e 752 771
e 752 772
e 752 773
e 752 774
e 752 775
e 752 776
e 752 777
e 778 779
e 778 780
e 778 781
e 778 782
e 778 783
e 778 784
e 778 785
e 778 786
e 778 787
e 778 788
e 778 789
e 778 790
e 778 791
e 778 792
e 778 793
e 778 794
e 778 795
e 778 796
e 778 797
e 778 798
e 778 799
e 778 800
e 778 801
e 802 803
e 802 804
e 802 805
e 802 806
e 802 807
e 802 808
e 802 809
e 802 810
e 802 811
e 802 812
e 802 813
e 802 814
e 802 815
e 802 816
e 802 817
e 802 818
e 802 819
e 802 820
e 802 821
e 802 822
e 802 823
e 802 824
e 802 825
e 802 826
e 802 827
e 802 828
e 802 829
e 802 830
e 802 831
e 802 832
e 802 833
e 802 834
e 802 835
e 802 836
e 802 837
e 802 838
e 802 839
e 802 840
e 802 841
e 802 842
e 802 843
e 802 844
e 802 845
e 802 846
e 802 847
e 802 848
e 802 849
e 802 850
e 802 851
e 802 852
e 802 853
e 802 854
e 802 855
e 802 856
e 802 857
e 802 858
e 802 859
e 802 860
e 802 861
e 802 862
e 802 863
e 802 864
e 802 865
e 802 866
e 802 867
e 868 869
e 868 870
e 868 871
e 868 872
e 868 873
e 868 874
e 868 875
e 868 876
e 868 877
e 868 878
e 868 879
e 868 880
e 868 881
e 868 882
e 868 883
e 868 884
e 868 885
e 868 886
e 868 887
e 868 888
e 868 889
e 868 890
e 868 891
e 868 892
e 868 893
e 868 894
e 868 895
e 868 896
e 868 897
e 868 898
e 868 899
e 868 900
e 868 901
e 868 902
e 903 904
e 903 905
e 903 906
e 903 907
e 903 908
e 903 909
e 903 910
e 903 911
e 903 912
e 903 913
e 903 914
e 903 915
e 903 916
e 903 917
e 903 918
e 903 919
e 903 920
e 903 921
e 903 922
e 903 923
e 903 924
e 903 925
e 903 926
e 903 927
e 903 928
e 903 929
e 903 930
e 903 931
e 903 932
e 903 933
e 903 934
e 903 935
e 903 936
e 903 937
e 903 938
e 903 939
e 903 940
e 903 941
e 903 942
e 903 943
e 903 944
e 903 945
e 903 946
e 903 947
e 903 948
e 903 949
e 903 950
e 903 951
e 903 952
e 903 953
e 903 954
e 903 955
e 903 956
e 903 957
e 903 958
e 903 959
e 903 960
e 903 961
e 903 962
e 903 963
e 903 964
e 903 965
e 903 966
e 903 967
e 903 968
e 903 969
e 903 970
e 903 971
e 903 972
e 903 973
e 903 974
e 903 975
e 903 976
e 903 977
e 903 978
e 903 979
e 903 980
e 903 981
e 903 982
e 983 984
e 983 985
e 983 986
e 983 987
e 983 988
e 983 989
e 983 990
e 983 991
e 983 992
e 983 993
e 983 994
e 983 995
e 983 996
e 983 997
e 983 998
e 983 999
e 983 1000
e 983 1001
e 983 1002
e 983 1003
e 983 1004
e 983 1005
e 983 1006
e 983 1007
e 983 1008
e 983 1009
e 983 1010
e 983 1011
e 983 1012
e 983 1013
e 983 1014
e 983 1015
e 983 1016
e 983 1017
e 983 1018
e 983 1019
e 983 1020
e 983 1021
e 983 1022
e 983 1023
e 983 1024
e 983 1025
e 983 1026
e 983 1027
e 983 1028
e 983 1029
e 983 1030
e 983 1031
e 983 1032
e 983 1033
e 983 1034
e 983 1035
e 983 1036
e 983 1037
e 983 1038
e 983 1039
e 983 1040
e 983 1041
e 983 1042
e 983 1043
e 983 1044
e 983 1045
e 983 1046
e 983 1047
e 983 1048
e 983 1049
e 983 1050
e 983 1051
e 983 1052
e 1053 1054
e 1053 1055
e 1053 1056
e 1053 1057
e 1053 1058
e 1053 1059
e 1053 1060
e 1053 1061
e 1053 1062
e 1053 1063
e 1053 1064
e 1053 1065
e 1053 1066
e 1053 1067
e 1053 1068
e 1053 1069
e 1053 1070
e 1053 1071
e 1053 1072
e 1053 1073
e 1053 1074
e 1053 1075
e 1053 1076
e 1053 1077
e 1053 1078
e 1053 1079
e 1053 1080
e 1053 1081
e 1053 1082
e 1053 1083
e 1053 1084
e 1053 1085
e 1053 1086
e 1053 1087
e 1053 1088
e 1053 1089
e 1053 1090
e 1053 1091
e 1053 1092
e 1053 1093
e 1053 1094
e 1053 1095
e 1053 1096
e 1053 1097
e 1098 1099
e 1098 1100
e 1098 1101
e 1098 1102
e 1098 1103
e 1098 1104
e 1098 1105
e 1098 1106
e 1098 1107
e 1098 1108
e 1098 1109
e 1098 1110
e 1098 1111
e 1098 1112
e 1098 1113
e 1098 1114
e 1098 1115
e 1098 1116
e 1098 1117
e 1098 1118
e 1098 1119
e 1098 1120
e 1098 1121
e 1098 1122
e 1098 1123
e 1098 1124
e 1098 1125
e 1098 1126
e 1098 1127
e 1098 1128
e 1098 1129
e 1098 1130
e 1131 1132
e 1131 1133
e 1131 1134
e 1131 1135
e 1131 1136
e 1131 1137
e 1131 1138
e 1131 1139
e 1131 1140
e 1131 1141
e 1131 1142
e 1131 1143
e 1131 1144
e 1131 1145
e 1131 1146
e 1131 1147
e 1131 1148
e 1131 1149
e 1131 1150
e 1131 1151
e 1131 1152
e 1131 1153
e 1131 1154
e 1131 1155
e 1131 1156
e 1131 1157
e 1131 1158
e 1131 1159
e 1131 1160
e 1131 1161
e 1131 1162
e 1131 1163
e 1131 1164
e 1131 1165
e 1131 1166
e 1131 1167
e 1131 1168
e 1131 1169
e 1131 1170
e 1131 1171
e 1172 1173
e 1172 1174
e 1172 1175
e 1172 1176
e 1172 1177
e 1172 1178
e 1172 1179
e 1172 1180
e 1172 1181
e 1172 1182
e 1172 1183
e 1172 1184
e 1172 1185
e 1172 1186
e 1172 1187
e 1172 1188
e 1172 1189
e 1172 1190
e 1172 1191
e 1172 1192
e 1172 1193
e 1194 1195
e 1194 1196
e 1194 1197
e 1194 1198
e 1194 1199
e 1194 1200
e 1194 1201
e 1194 1202
e 1194 1203
e 1194 1204
e 1194 1205
e 1194 1206
e 1194 1207
e 1194 1208
e 1194 1209
e 1194 1210
e 1194 1211
e 1194 1212
e 1194 1213
e 1194 1214
e 1194 1215
e 1194 1216
e 1194 1217
e 1194 1218
e 1194 1219
e 1194 1220
e 1194 1221
e 1194 1222
e 1194 1223
e 1194 1224
e 1194 1225
e 1194 1226
e 1194 1227
e 1194 1228
e 1194 1229
e 1194 1230
e 1194 1231
e 1194 1232
e 1194 1233
e 1194 1234
e 1194 1235
e 1194 1236
e 1194 1237
e 1194 1238
e 1194 1239
e 1194 1240
e 1194 1241
e 1194 1242
e 1194 1243
e 1194 1244
e 1194 1245
e 1194 1246
e 1194 1247
e 1194 1248
e 1194 1249
e 1194 1250
e 1194 1251
e 1194 1252
e 1194 1253
e 1194 1254
e 1194 1255
e 1194 1256
e 1194 1257
e 1194 1258
e 1194 1259
e 1194 1260
e 1261 1262
e 1261 1263
e 1261 1264
e 1261 1265
e 1261 1266
e 1261 1267
e 1261 1268
e 1261 1269
e 1261 1270
e 1261 1271
e 1261 1272
e 1261 1273
e 1261 1274
e 1261 1275
e 1261 1276
e 1261 1277
e 1261 1278
e 1261 1279
e 1280 1281
e 1280 1282
e 1280 1283
e 1280 1284
e 1280 1285
e 1280 1286
e 1280 1287
e 1280 1288
e 1280 1289
e 1280 1290
e 1280 1291
e 1280 1292
e 1280 1293
e 1280 1294
e 1280 1295
e 1280 1296
e 1280 1297
e 1280 1298
e 1280 1299
e 1280 1300
e 1280 1301
e 1280 1302
e 1280 1303
e 1280 1304
e 1280 1305
e 1280 1306
e 1280 1307
e 1280 1308
e 1280 1309
e 1280 1310
e 1280 1311
e 1280 1312
e 1280 1313
e 1280 1314
e 1280 1315
e 1280 1316
e 1280 1317
e 1280 1318
e 1280 1319
e 1280 1320
e 1280 1321
e 1280 1322
e 1280 1323
e 1280 1324
e 1280 1325
e 1280 1326
e 1280 1327
e 1280 1328
e 1329 1330
e 1329 1331
e 1329 1332
e 1329 1333
e 1329 1334
e 1329 1335
e 1329 1336
e 1329 1337
e 1329 1338
e 1329 1339
e 1329 1340
e 1329 1341
e 1329 1342
e 1329 1343
e 1329 1344
e 1329 1345
e 1329 1346
e 1329 1347
e 1348 1349
e 1348 1350
e 1348 1351
e 1348 1352
e 1348 1353
e 1348 1354
e 1348 1355
e 1348 1356
e 1348 1357
e 1348 1358
e 1348 1359
e 1348 1360
e 1348 1361
e 1348 1362
e 1348 1363
e 1348 1364
e 1348 1365
e 1348 1366
e 1348 1367
e 1348 1368
e 1348 1369
e 1348 1370
e 1348 1371
e 1348 1372
e 1348 1373
e 1348 1374
e 1348 1375
e 1348 1376
e 1348 1377
e 1348 1378
e 1348 1379
e 1348 1380
e 1348 1381
e 1348 1382
e 1348 1383
e 1348 1384
e 1348 1385
e 1348 1386
e 1348 1387
e 1348 1388
e 1348 1389
e 1348 1390
e 1348 1391
e 1348 1392
e 1348 1393
e 1348 1394
e 1348 1395
e 1348 1396
e 1348 1397
e 1348 1398
e 1348 1399
e 1348 1400
e 1348 1401
e 1348 1402
e 1348 1403
e 1348 1404
e 1405 1406
e 1405 1407
e 1405 1408
e 1405 1409
e 1405 1410
e 1405 1411
e 1405 1412
e 1405 1413
e 1405 1414
e 1405 1415
e 1405 1416
e 1405 1417
e 1405 1418
e 1405 1419
e 1405 1420
e 1405 1421
e 1405 1422
e 1405 1423
e 1405 1424
e 1405 1425
e 1405 1426
e 1405 1427
e 1405 1428
e 1405 1429
e 1405 1430
e 1405 1431
e 1405 1432
e 1405 1433
e 1405 1434
e 1405 1435
e 1405 1436
e 1405 1437
e 1405 1438
e 1405 1439
e 1405 1440
e 1405 1441
e 1405 1442
e 1405 1443
e 1405 1444
e 1405 1445
e 1405 1446
e 1405 1447
e 1405 1448
e 1405 1449
e 1405 1450
e 1405 1451
e 1405 1452
e 1453 1454
e 1453 1455
e 1453 1456
e 1453 1457
e 1453 1458
e 1453 1459
e 1453 1460
e 1453 1461
e 1453 1462
e 1453 1463
e 1453 1464
e 1453 1465
e 1453 1466
e 1453 1467
e 1453 1468
e 1453 1469
e 1453 1470
e 1453 1471
e 1453 1472
e 1453 1473
e 1453 1474
e 1453 1475
e 1453 1476
e 1453 1477
e 1453 1478
e 1453 1479
e 1453 1480
e 1453 1481
e 1453 1482
e 1453 1483
e 1453 1484
e 1453 1485
e 1453 1486
e 1453 1487
e 1453 1488
e 1453 1489
e 1453 1490
e 1453 1491
e 1453 1492
e 1453 1493
e 1453 1494
e 1453 1495
e 1453 1496
e 1453 1497
e 1453 1498
e 1453 1499
e 1453 1500
e 1453 1501
e 1453 1502
e 1453 1503
e 1453 1504
e 1453 1505
e 1453 1506
e 1453 1507
e 1453 1508
e 1453 1509
e 1453 1510
e 1453 1511
e 1453 1512
e 1453 1513
e 1453 1514
e 1453 1515
e 1453 1516
e 1453 1517
e 1453 1518
e 1453 1519
e 1453 1520
e 1453 1521
e 1453 1522
e 1453 1523
e 1453 1524
e 1453 1525
e 1453 1526
e 1453 1527
e 1453 1528
e 1453 1529
e 1530 1531
e 1530 1532
e 1530 1533
e 1530 1534
e 1530 1535
e 1530 1536
e 1530 1537
e 1530 1538
e 1530 1539
e 1530 1540
e 1530 1541
e 1530 1542
e 1530 1543
e 1530 1544
e 1530 1545
e 1530 1546
e 1530 1547
e 1530 1548
e 1530 1549
e 1530 1550
e 1530 1551
e 1530 1552
e 1553 1554
e 1553 1555
e 1553 1556
e 1553 1557
e 1553 1558
e 1553 1559
e 1553 1560
e 1553 1561
e 1553 1562
e 1553 1563
e 1553 1564
e 1553 1565
e 1553 1566
e 1553 1567
e 1553 1568
e 1553 1569
e 1553 1570
e 1553 1571
e 1553 1572
e 1553 1573
e 1553 1574
e 1553 1575
e 1553 1576
e 1553 1577
e 1553 1578
e 1553 1579
e 1553 1580
e 1553 1581
e 1553 1582
e 1553 1583
e 1553 1584
e 1553 1585
e 1553 1586
e 1553 1587
e 1553 1588
e 1553 1589
e 1553 1590
e 1553 1591
e 1553 1592
e 1553 1593
e 1553 1594
e 1553 1595
e 1553 1596
e 1553 1597
e 1553 1598
e 1599 1600
e 1599 1601
e 1599 1602
e 1599 1603
e 1599 1604
e 1599 1605
e 1599 1606
e 1599 1607
e 1599 1608
e 1599 1609
e 1599 1610
e 1599 1611
e 1599 1612
e 1599 1613
e 1599 1614
e 1599 1615
e 1599 1616
e 1599 1617
e 1599 1618
e 1599 1619
e 1599 1620
e 1599 1621
e 1599 1622
e 1599 1623
e 1599 1624
e 1599 1625
e 1599 1626
e 1599 1627
e 1599 1628
e 1599 1629
e 1599 1630
e 1599 1631
e 1599 1632
e 1599 1633
e 1599 1634
e 1599 1635
e 1599 1636
e 1599 1637
e 1599 1638
e 1599 1639
e 1599 1640
e 1599 1641
e 1599 1642
e 1599 1643
e 1599 1644
e 1599 1645
e 1599 1646
e 1599 1647
e 1599 1648
e 1599 1649
e 1599 1650
e 1599 1651
e 1599 1652
e 1599 1653
e 1599 1654
e 1599 1655
e 1599 1656
e 1599 1657
e 1599 1658
e 1599 1659
e 1599 1660
e 1599 1661
e 1599 1662
e 1599 1663
e 1599 1664
e 1599 1665
e 1599 1666
e 1667 1668
e 1667 1669
e 1667 1670
e 1667 1671
e 1667 1672
e 1667 1673
e 1667 1674
e 1667 1675
e 1667 1676
e 1667 1677
e 1667 1678
e 1667 1679
e 1667 1680
e 1667 1681
e 1667 1682
e 1667 1683
e 1667 1684
e 1667 1685
e 1667 1686
e 1667 1687
e 1667 1688
e 1667 1689
e 1667 1690
e 1667 1691
e 1667 1692
e 1667 1693
e 1667 1694
e 1667 1695
e 1667 1696
e 1667 1697
e 1667 1698
e 1667 1699
e 1667 1700
e 1667 1701
e 1667 1702
e 1667 1703
e 1704 1705
e 1704 1706
e 1704 1707
e 1704 1708
e 1704 1709
e 1704 1710
e 1704 1711
e 1704 1712
e 1704 1713
e 1704 1714
e 1704 1715
e 1704 1716
e 1704 1717
e 1704 1718
e 1704 1719
e 1704 1720
e 1704 1721
e 1704 1722
e 1704 1723
e 1704 1724
e 1704 1725
e 1704 1726
e 1704 1727
e 1704 1728
e 1704 1729
e 1704 1730
e 1704 1731
e 1704 1732
e 1704 1733
e 1704 1734
e 1704 1735
e 1704 1736
e 1704 1737
e 1704 1738
e 1704 1739
e 1704 1740
e 1704 1741
e 1704 1742
e 1704 1743
e 1704 1744
e 1704 1745
e 1704 1746
e 1704 1747
e 1704 1748
e 1704 1749
e 1704 1750
e 1704 1751
e 1704 1752
e 1704 1753
e 1704 1754
e 1704 1755
e 1704 1756
e 1704 1757
e 1704 1758
e 1704 1759
e 1704 1760
e 1704 1761
e 1704 1762
e 1704 1763
e 1764 1765
e 1764 1766
e 1764 1767
e 1764 1768
e 1764 1769
e 1764 1770
e 1764 1771
e 1764 1772
e 1764 1773
e 1764 1774
e 1764 1775
e 1764 1776
e 1764 1777
e 1764 1778
e 1779 1780
e 1779 1781
e 1779 1782
e 1779 1783
e 1779 1784
e 1779 1785
e 1779 1786
e 1779 1787
e 1779 1788
e 1779 1789
e 1779 1790
e 1779 1791
e 1779 1792
e 1779 1793
e 1779 1794
e 1779 1795
e 1779 1796
e 1779 1797
e 1779 1798
e 1779 1799
e 1779 1800
e 1779 1801
e 1779 1802
e 1779 1803
e 1779 1804
e 1779 1805
e 1779 1806
e 1779 1807
e 1779 1808
e 1779 1809
e 1779 1810
e 1779 1811
e 1779 1812
e 1779 1813
e 1779 1814
e 1779 1815
e 1779 1816
e 1779 1817
e 1779 1818
e 1779 1819
e 1779 1820
e 1779 1821
e 1779 1822
e 1779 1823
e 1779 1824
e 1779 1825
e 1779 1826
e 1779 1827
e 1779 1828
e 1779 1829
e 1830 1831
e 1830 1832
e 1830 1833
e 1830 1834
e 1830 1835
e 1830 1836
e 1830 1837
e 1830 1838
e 1830 1839
e 1830 1840
e 1830 1841
e 1830 1842
e 1830 1843
e 1830 1844
e 1830 1845
e 1830 1846
e 1830 1847
e 1830 1848
e 1830 1849
e 1830 1850
e 1830 1851
e 1830 1852
e 1830 1853
e 1830 1854
e 1830 1855
e 1830 1856
e 1830 1857
e 1830 1858
e 1830 1859
e 1830 1860
e 1830 1861
e 1830 1862
e 1830 1863
e 1830 1864
e 1830 1865
e 1830 1866
e 1830 1867
e 1830 1868
e 1830 1869
e 1830 1870
e 1830 1871
e 1830 1872
e 1830 1873
e 1830 1874
e 1875 1876
e 1875 1877
e 1875 1878
e 1875 1879
e 1875 1880
e 1875 1881
e 1875 1882
e 1875 1883
e 1875 1884
e 1875 1885
e 1875 1886
e 1875 1887
e 1875 1888
e 1875 1889
e 1875 1890
e 1875 1891
e 1875 1892
e 1875 1893
e 1875 1894
e 1875 1895
e 1875 1896
e 1875 1897
e 1875 1898
e 1875 1899
e 1875 1900
e 1875 1901
e 1875 1902
e 1875 1903
e 1875 1904
e 1875 1905
e 1875 1906
e 1875 1907
e 1875 1908
e 1875 1909
e 1875 1910
e 1875 1911
e 1875 1912
e 1875 1913
e 1875 1914
e 1875 1915
e 1875 1916
e 1875 1917
e 1875 1918
e 1875 1919
e 1875 1920
e 1875 1921
e 1875 1922
e 1875 1923
e 1875 1924
e 1875 1925
e 1875 1926
e 1875 1927
e 1875 1928
e 1875 1929
e 1875 1930
e 1875 1931
e 1875 1932
e 1875 1933
e 1875 1934
e 1875 1935
e 1875 1936
e 1875 1937
e 1875 1938
e 1875 1939
e 1875 1940
e 1875 1941
e 1875 1942
e 1875 1943
e 1875 1944
e 1875 1945
e 1875 1946
e 1947 1948
e 1947 1949
e 1947 1950
e 1947 1951
e 1947 1952
e 1947 1953
e 1947 1954
e 1947 1955
e 1947 1956
e 1947 1957
e 1947 1958
e 1947 1959
e 1947 1960
e 1947 1961
e 1947 1962
e 1947 1963
e 1947 1964
e 1947 1965
e 1947 1966
e 1947 1967
e 1947 1968
e 1947 1969
e 1947 1970
e 1947 1971
e 1947 1972
e 1947 1973
e 1947 1974
e 1947 1975
e 1947 1976
e 1947 1977
e 1947 1978
e 1947 1979
e 1947 1980
e 1947 1981
e 1947 1982
e 1947 1983
e 1947 1984
e 1947 1985
e 1947 1986
e 1947 1987
e 1947 1988
e 1947 1989
e 1947 1990
e 1947 1991
e 1947 1992
e 1947 1993
e 1947 1994
e 1947 1995
e 1947 1996
e 1947 1997
e 1947 1998
e 1947 1999
e 1947 2000
e 1947 2001
e 1947 2002
e 1947 2003
e 1947 2004
e 1947 2005
e 1947 2006
e 1947 2007
e 1947 2008
e 1947 2009
e 1947 2010
e 1947 2011
e 1947 2012
e 1947 2013
e 1947 2014
e 1947 2015
e 1947 2016
e 1947 2017
e 1947 2018
e 1947 2019
e 1947 2020
e 1947 2021
e 1947 2022
e 1947 2023
e 1947 2024
e 2025 2026
e 2025 2027
e 2025 2028
e 2025 2029
e 2025 2030
e 2025 2031
e 2025 2032
e 2025 2033
e 2025 2034
e 2025 2035
e 2025 2036
e 2025 2037
e 2025 2038
e 2025 2039
e 2025 2040
e 2025 2041
e 2025 2042
e 2025 2043
e 2025 2044
e 2025 2045
e 2025 2046
e 2025 2047
e 2025 2048
e 2025 2049
e 2025 2050
e 2025 2051
e 2025 2052
e 2025 2053
e 2025 2054
e 2025 2055
e 2025 2056
e 2025 2057
e 2025 2058
e 2025 2059
e 2025 2060
e 2025 2061
e 2025 2062
e 2025 2063
e 2025 2064
e 2025 2065
e 2025 2066
e 2025 2067
e 2025 2068
e 2025 2069
e 2025 2070
e 2025 2071
e 2025 2072
e 2025 2073
e 2025 2074
e 2025 2075
e 2025 2076
e 2025 2077
e 2025 2078
e 2025 2079
e 2025 2080
e 2025 2081
e 2025 2082
e 2025 2083
e 2025 2084
e 2025 2085
e 2025 2086
e 2025 2087
e 2025 2088
e 2025 2089
e 2025 2090
e 2025 2091
e 2025 2092
e 2093 2094
e 2093 2095
e 2093 2096
e 2093 2097
e 2093 2098
e 2093 2099
e 2093 2100
e 2093 2101
e 2093 2102
e 2093 2103
e 2093 2104
e 2093 2105
e 2093 2106
e 2093 2107
e 2093 2108
e 2093 2109
e 2093 2110
e 2093 2111
e 2093 2112
e 2093 2113
e 2093 2114
e 2093 2115
e 2093 2116
e 2093 2117
e 2093 2118
e 2093 2119
e 2093 2120
e 2093 2121
e 2093 2122
e 2093 2123
e 2093 2124
e 2093 2125
e 2093 2126
e 2093 2127
e 2093 2128
e 2093 2129
e 2093 2130
e 2093 2131
e 2093 2132
e 2093 2133
e 2093 2134
e 2093 2135
e 2093 2136
e 2093 2137
e 2093 2138
e 2139 2140
e 2139 2141
e 2139 2142
e 2139 2143
e 2139 2144
e 2139 2145
e 2139 2146
e 2139 2147
e 2139 2148
e 2139 2149
e 2139 2150
e 2139 2151
e 2139 2152
e 2139 2153
e 2139 2154
e 2139 2155
e 2139 2156
e 2139 2157
e 2139 2158
e 2139 2159
e 2139 2160
e 2139 2161
e 2139 2162
e 2139 2163
e 2139 2164
e 2139 2165
e 2139 2166
e 2139 2167
e 2139 2168
e 2139 2169
e 2139 2170
e 2139 2171
e 2139 2172
e 2139 2173
e 2139 2174
e 2139 2175
e 2139 2176
e 2139 2177
e 2139 2178
e 2139 2179
e 2139 2180
e 2139 2181
e 2139 2182
e 2139 2183
e 2139 2184
e 2139 2185
e 2139 2186
e 2139 2187
e 2139 2188
e 2139 2189
e 2139 2190
e 2139 2191
e 2139 2192
e 2139 2193
e 2139 2194
e 2139 2195
e 2139 2196
e 2139 2197
e 2139 2198
e 2139 2199
e 2139 2200
e 2139 2201
e 2139 2202
e 2139 2203
e 2139 2204
e 2205 2206
e 2205 2207
e 2205 2208
e 2205 2209
e 2205 2210
e 2205 2211
e 2205 2212
e 2205 2213
e 2205 2214
e 2205 2215
e 2205 2216
e 2205 2217
e 2205 2218
e 2205 2219
e 2205 2220
e 2205 2221
e 2205 2222
e 2205 2223
e 2205 2224
e 2205 2225
e 2205 2226
e 2205 2227
e 2205 2228
e 2205 2229
e 2205 2230
e 2205 2231
e 2205 2232
e 2205 2233
e 2205 2234
e 2205 2235
e 2205 2236
e 2205 2237
e 2205 2238
e 2205 2239
e 2205 2240
e 2205 2241
e 2205 2242
e 2205 2243
e 2205 2244
e 2205 2245
e 2205 2246
e 2205 2247
e 2205 2248
e 2205 2249
e 2205 2250
e 2205 2251
e 2205 2252
e 2205 2253
e 2205 2254
e 2205 2255
e 2205 2256
e 2205 2257
e 2205 2258
e 2205 2259
e 2205 2260
e 2205 2261
e 2205 2262
e 2205 2263
e 2205 2264
e 2265 2266
e 2265 2267
e 2265 2268
e 2265 2269
e 2265 2270
e 2265 2271
e 2265 2272
e 2265 2273
e 2265 2274
e 2265 2275
e 2265 2276
e 2265 2277
e 2265 2278
e 2265 2279
e 2265 2280
e 2265 2281
e 2265 2282
e 2265 2283
e 2265 2284
e 2265 2285
e 2265 2286
e 2265 2287
e 2265 2288
e 2265 2289
e 2265 2290
e 2265 2291
e 2265 2292
e 2265 2293
e 2265 2294
e 2265 2295
e 2265 2296
e 2265 2297
e 2265 2298
e 2265 2299
e 2265 2300
e 2265 2301
e 2265 2302
e 2265 2303
e 2265 2304
e 2265 2305
e 2265 2306
e 2265 2307
e 2265 2308
e 2265 2309
e 2265 2310
e 2265 2311
e 2265 2312
e 2265 2313
e 2265 2314
e 2265 2315
e 2265 2316
e 2317 2318
e 2317 2319
e 2317 2320
e 2317 2321
e 2317 2322
e 2317 2323
e 2317 2324
e 2317 2325
e 2317 2326
e 2317 2327
e 2317 2328
e 2317 2329
e 2317 2330
e 2317 2331
e 2317 2332
e 2317 2333
e 2317 2334
e 2317 2335
e 2317 2336
e 2317 2337
e 2317 2338
e 2317 2339
e 2317 2340
e 2317 2341
e 2317 2342
e 2317 2343
e 2317 2344
e 2317 2345
e 2317 2346
e 2317 2347
e 2317 2348
e 2317 2349
e 2317 2350
e 2317 2351
e 2317 2352
e 2317 2353
e 2317 2354
e 2317 2355
e 2317 2356
e 2317 2357
e 2317 2358
e 2317 2359
e 2360 2361
e 2360 2362
e 2360 2363
e 2360 2364
e 2360 2365
e 2360 2366
e 2360 2367
e 2360 2368
e 2360 2369
e 2360 2370
e 2360 2371
e 2360 2372
e 2360 2373
e 2360 2374
e 2360 2375
e 2360 2376
e 2360 2377
e 2360 2378
e 2360 2379
e 2360 2380
e 2360 2381
e 2360 2382
e 2360 2383
e 2384 2385
e 2384 2386
e 2384 2387
e 2384 2388
e 2384 2389
e 2384 2390
e 2384 2391
e 2384 2392
e 2384 2393
e 2384 2394
e 2384 2395
e 2384 2396
e 2384 2397
e 2398 2399
e 2398 2400
e 2398 2401
e 2398 2402
e 2398 2403
e 2398 2404
e 2398 2405
e 2398 2406
e 2398 2407
e 2398 2408
e 2398 2409
e 2398 2410
e 2398 2411
e 2398 2412
e 2398 2413
e 2398 2414
e 2398 2415
e 2398 2416
e 2398 2417
e 2398 2418
e 2398 2419
e 2398 2420
e 2398 2421
e 2398 2422
e 2398 2423
e 2398 2424
e 2398 2425
e 2398 2426
e 2398 2427
e 2398 2428
e 2398 2429
e 2398 2430
e 2398 2431
e 2398 2432
e 2398 2433
e 2398 2434
e 2398 2435
e 2398 2436
e 2398 2437
e 2398 2438
e 2398 2439
e 2398 2440
e 2398 2441
e 2398 2442
e 2398 2443
e 2398 2444
e 2398 2445
e 2398 2446
e 2398 2447
e 2398 2448
e 2398 2449
e 2398 2450
e 2398 2451
e 2398 2452
e 2398 2453
e 2398 2454
e 2398 2455
e 2398 2456
e 2398 2457
e 2398 2458
e 2398 2459
e 2398 2460
e 2398 2461
e 2398 2462
e 2398 2463
e 2398 2464
e 2398 2465
e 2398 2466
e 2398 2467
e 2398 2468
e 2398 2469
e 2398 2470
e 2398 2471
e 2398 2472
e 2398 2473
e 2398 2474
e 2398 2475
e 2398 2476
e 2398 2477
e 2478 2479
e 2478 2480
e 2478 2481
e 2478 2482
e 2478 2483
e 2478 2484
e 2478 2485
e 2478 2486
e 2478 2487
e 2478 2488
e 2489 2490
e 2489 2491
e 2489 2492
e 2489 2493
e 2489 2494
e 2489 2495
e 2489 2496
e 2489 2497
e 2489 2498
e 2489 2499
e 2489 2500
e 2489 2501
e 2489 2502
e 2489 2503
e 2489 2504
e 2489 2505
e 2489 2506
e 2489 2507
e 2489 2508
e 2489 2509
e 2489 2510
e 2489 2511
e 2489 2512
e 2489 2513
e 2489 2514
e 2489 2515
e 2489 2516
e 2489 2517
e 2489 2518
e 2489 2519
e 2489 2520
e 2489 2521
e 2489 2522
e 2489 2523
e 2489 2524
e 2489 2525
e 2489 2526
e 2489 2527
e 2489 2528
e 2489 2529
e 2489 2530
e 2489 2531
e 2489 2532
e 2489 2533
e 2489 2534
e 2489 2535
e 2489 2536
e 2537 2538
e 2537 2539
e 2537 2540
e 2537 2541
e 2537 2542
e 2537 2543
e 2537 2544
e 2537 2545
e 2537 2546
e 2537 2547
e 2537 2548
e 2537 2549
e 2537 2550
e 2537 2551
e 2537 2552
e 2537 2553
e 2537 2554
e 2537 2555
e 2537 2556
e 2537 2557
e 2537 2558
e 2537 2559
e 2537 2560
e 2537 2561
e 2537 2562
e 2537 2563
e 2537 2564
e 2537 2565
e 2537 2566
e 2537 2567
e 2537 2568
e 2537 2569
e 2537 2570
e 2537 2571
e 2537 2572
e 2537 2573
e 2537 2574
e 2537 2575
e 2537 2576
e 2537 2577
e 2537 2578
e 2537 2579
e 2537 2580
e 2537 2581
e 2537 2582
e 2537 2583
e 2537 2584
e 2537 2585
e 2537 2586
e 2537 2587
e 2537 2588
e 2537 2589
e 2537 2590
e 2537 2591
e 2537 2592
e 2537 2593
e 2537 2594
e 2537 2595
e 2537 2596
e 2537 2597
e 2537 2598
e 2537 2599
e 2537 2600
e 2537 2601
e 2537 2602
e 2537 2603
e 2537 2604
e 2537 2605
e 2537 2606
e 2537 2607
e 2537 2608
e 2537 2609
e 2537 2610
e 2537 2611
e 2537 2612
e 2537 2613
e 2537 2614
e 2537 2615
e 2537 2616
e 2537 2617
e 2618 2619
e 2618 2620
e 2618 2621
e 2618 2622
e 2618 2623
e 2618 2624
e 2618 2625
e 2618 2626
e 2618 2627
e 2618 2628
e 2618 2629
e 2618 2630
e 2618 2631
e 2618 2632
e 2618 2633
e 2618 2634
e 2618 2635
e 2618 2636
e 2618 2637
e 2618 2638
e 2618 2639
e 2618 2640
e 2618 2641
e 2618 2642
e 2618 2643
e 2618 2644
e 2618 2645
e 2618 2646
e 2618 2647
e 2618 2648
e 2618 2649
e 2618 2650
e 2618 2651
e 2618 2652
e 2618 2653
e 2618 2654
e 2618 2655
e 2618 2656
e 2618 2657
e 2618 2658
e 2618 2659
e 2618 2660
e 2618 2661
e 2662 2663
e 2662 2664
e 2662 2665
e 2662 2666
e 2662 2667
e 2662 2668
e 2662 2669
e 2662 2670
e 2662 2671
e 2662 2672
e 2662 2673
e 2662 2674
e 2662 2675
e 2662 2676
e 2662 2677
e 2662 2678
e 2662 2679
e 2662 2680
e 2662 2681
e 2662 2682
e 2662 2683
e 2662 2684
e 2662 2685
e 2662 2686
e 2662 2687
e 2662 2688
e 2662 2689
e 2662 2690
e 2662 2691
e 2662 2692
e 2662 2693
e 2662 2694
e 2662 2695
e 2662 2696
e 2662 2697
e 2662 2698
e 2662 2699
e 2662 2700
e 2662 2701
e 2662 2702
e 2662 2703
e 2662 2704
e 2662 2705
